
letting r = 10
letting n = 11

letting demand =
        [[0,1,1,1,0,0,0,0,0,1,1],
         [0,0,0,0,0,0,1,1,0,0,0],
         [0,0,0,1,0,1,0,0,1,1,0],
         [0,0,0,0,0,0,0,0,0,0,0],
         [0,0,0,0,0,1,1,0,0,0,0],
         [0,0,0,0,0,0,1,1,0,0,0],
         [0,0,0,0,0,0,0,0,0,0,0],
         [0,0,0,0,0,0,0,0,0,0,1],
         [0,0,0,0,0,0,0,0,0,0,1],
         [0,0,0,0,0,0,0,0,0,0,0],
         [0,0,0,0,0,0,0,0,0,0,0]]


letting capacity_nodes be [3, 4, 5, 2, 3, 3, 5, 1, 2, 2]